NAME : swiss42-R-5-0-c.2694.tour
COMMENT : Length = 2694
COMMENT : Found by LKH-3 [Keld Helsgaun] Tue Jul 30 13:14:22 2024
TYPE : TOUR
DIMENSION : 42
TOUR_SECTION
1
31
22
41
24
13
14
6
38
16
4
5
19
26
9
30
25
40
10
28
7
20
15
33
21
35
39
29
3
12
2
32
36
37
18
8
17
27
11
42
23
34
-1
EOF
